p cnf 120 1162
1 2 3 4 5 6 7 8 9 10 11 12 0
13 14 15 16 17 18 19 20 21 22 23 24 0
25 26 27 28 29 30 31 32 33 34 35 36 0
37 38 39 40 41 42 43 44 45 46 47 48 0
49 50 51 52 53 54 55 56 57 58 59 60 0
61 62 63 64 65 66 67 68 69 70 71 72 0
73 74 75 76 77 78 79 80 81 82 83 84 0
85 86 87 88 89 90 91 92 93 94 95 96 0
97 98 99 100 101 102 103 104 105 106 107 108 0
109 110 111 112 113 114 115 116 117 118 119 120 0
-1 -13 0
-2 -14 0
-3 -15 0
-4 -16 0
-5 -17 0
-6 -18 0
-7 -19 0
-8 -20 0
-9 -21 0
-10 -22 0
-11 -23 0
-12 -24 0
-13 -25 0
-1 -25 0
-2 -26 0
-3 -27 0
-4 -28 0
-5 -29 0
-6 -30 0
-7 -31 0
-8 -32 0
-9 -33 0
-10 -34 0
-11 -35 0
-12 -36 0
-13 -37 0
-1 -37 0
-2 -38 0
-3 -39 0
-4 -40 0
-5 -41 0
-6 -42 0
-7 -43 0
-8 -44 0
-9 -45 0
-10 -46 0
-11 -47 0
-12 -48 0
-13 -49 0
-1 -49 0
-2 -50 0
-3 -51 0
-4 -52 0
-5 -53 0
-6 -54 0
-7 -55 0
-8 -56 0
-9 -57 0
-10 -58 0
-11 -59 0
-12 -60 0
-13 -61 0
-1 -61 0
-2 -62 0
-3 -63 0
-4 -64 0
-5 -65 0
-6 -66 0
-7 -67 0
-8 -68 0
-9 -69 0
-10 -70 0
-11 -71 0
-12 -72 0
-13 -73 0
-1 -73 0
-2 -74 0
-3 -75 0
-4 -76 0
-5 -77 0
-6 -78 0
-7 -79 0
-8 -80 0
-9 -81 0
-10 -82 0
-11 -83 0
-12 -84 0
-13 -85 0
-1 -85 0
-2 -86 0
-3 -87 0
-4 -88 0
-5 -89 0
-6 -90 0
-7 -91 0
-8 -92 0
-9 -93 0
-10 -94 0
-11 -95 0
-12 -96 0
-13 -97 0
-1 -97 0
-2 -98 0
-3 -99 0
-4 -100 0
-5 -101 0
-6 -102 0
-7 -103 0
-8 -104 0
-9 -105 0
-10 -106 0
-11 -107 0
-12 -108 0
-13 -109 0
-1 -109 0
-2 -110 0
-3 -111 0
-4 -112 0
-5 -113 0
-6 -114 0
-7 -115 0
-8 -116 0
-9 -117 0
-10 -118 0
-11 -119 0
-12 -120 0
-13 -1 0
-14 -2 0
-15 -3 0
-16 -4 0
-17 -5 0
-18 -6 0
-19 -7 0
-20 -8 0
-21 -9 0
-22 -10 0
-23 -11 0
-24 -12 0
-25 -13 0
-13 -25 0
-14 -26 0
-15 -27 0
-16 -28 0
-17 -29 0
-18 -30 0
-19 -31 0
-20 -32 0
-21 -33 0
-22 -34 0
-23 -35 0
-24 -36 0
-25 -37 0
-13 -37 0
-14 -38 0
-15 -39 0
-16 -40 0
-17 -41 0
-18 -42 0
-19 -43 0
-20 -44 0
-21 -45 0
-22 -46 0
-23 -47 0
-24 -48 0
-25 -49 0
-13 -49 0
-14 -50 0
-15 -51 0
-16 -52 0
-17 -53 0
-18 -54 0
-19 -55 0
-20 -56 0
-21 -57 0
-22 -58 0
-23 -59 0
-24 -60 0
-25 -61 0
-13 -61 0
-14 -62 0
-15 -63 0
-16 -64 0
-17 -65 0
-18 -66 0
-19 -67 0
-20 -68 0
-21 -69 0
-22 -70 0
-23 -71 0
-24 -72 0
-25 -73 0
-13 -73 0
-14 -74 0
-15 -75 0
-16 -76 0
-17 -77 0
-18 -78 0
-19 -79 0
-20 -80 0
-21 -81 0
-22 -82 0
-23 -83 0
-24 -84 0
-25 -85 0
-13 -85 0
-14 -86 0
-15 -87 0
-16 -88 0
-17 -89 0
-18 -90 0
-19 -91 0
-20 -92 0
-21 -93 0
-22 -94 0
-23 -95 0
-24 -96 0
-25 -97 0
-13 -97 0
-14 -98 0
-15 -99 0
-16 -100 0
-17 -101 0
-18 -102 0
-19 -103 0
-20 -104 0
-21 -105 0
-22 -106 0
-23 -107 0
-24 -108 0
-25 -109 0
-13 -109 0
-14 -110 0
-15 -111 0
-16 -112 0
-17 -113 0
-18 -114 0
-19 -115 0
-20 -116 0
-21 -117 0
-22 -118 0
-23 -119 0
-24 -120 0
-25 -1 0
-26 -2 0
-27 -3 0
-28 -4 0
-29 -5 0
-30 -6 0
-31 -7 0
-32 -8 0
-33 -9 0
-34 -10 0
-35 -11 0
-36 -12 0
-37 -13 0
-25 -13 0
-26 -14 0
-27 -15 0
-28 -16 0
-29 -17 0
-30 -18 0
-31 -19 0
-32 -20 0
-33 -21 0
-34 -22 0
-35 -23 0
-36 -24 0
-37 -25 0
-25 -37 0
-26 -38 0
-27 -39 0
-28 -40 0
-29 -41 0
-30 -42 0
-31 -43 0
-32 -44 0
-33 -45 0
-34 -46 0
-35 -47 0
-36 -48 0
-37 -49 0
-25 -49 0
-26 -50 0
-27 -51 0
-28 -52 0
-29 -53 0
-30 -54 0
-31 -55 0
-32 -56 0
-33 -57 0
-34 -58 0
-35 -59 0
-36 -60 0
-37 -61 0
-25 -61 0
-26 -62 0
-27 -63 0
-28 -64 0
-29 -65 0
-30 -66 0
-31 -67 0
-32 -68 0
-33 -69 0
-34 -70 0
-35 -71 0
-36 -72 0
-37 -73 0
-25 -73 0
-26 -74 0
-27 -75 0
-28 -76 0
-29 -77 0
-30 -78 0
-31 -79 0
-32 -80 0
-33 -81 0
-34 -82 0
-35 -83 0
-36 -84 0
-37 -85 0
-25 -85 0
-26 -86 0
-27 -87 0
-28 -88 0
-29 -89 0
-30 -90 0
-31 -91 0
-32 -92 0
-33 -93 0
-34 -94 0
-35 -95 0
-36 -96 0
-37 -97 0
-25 -97 0
-26 -98 0
-27 -99 0
-28 -100 0
-29 -101 0
-30 -102 0
-31 -103 0
-32 -104 0
-33 -105 0
-34 -106 0
-35 -107 0
-36 -108 0
-37 -109 0
-25 -109 0
-26 -110 0
-27 -111 0
-28 -112 0
-29 -113 0
-30 -114 0
-31 -115 0
-32 -116 0
-33 -117 0
-34 -118 0
-35 -119 0
-36 -120 0
-37 -1 0
-38 -2 0
-39 -3 0
-40 -4 0
-41 -5 0
-42 -6 0
-43 -7 0
-44 -8 0
-45 -9 0
-46 -10 0
-47 -11 0
-48 -12 0
-49 -13 0
-37 -13 0
-38 -14 0
-39 -15 0
-40 -16 0
-41 -17 0
-42 -18 0
-43 -19 0
-44 -20 0
-45 -21 0
-46 -22 0
-47 -23 0
-48 -24 0
-49 -25 0
-37 -25 0
-38 -26 0
-39 -27 0
-40 -28 0
-41 -29 0
-42 -30 0
-43 -31 0
-44 -32 0
-45 -33 0
-46 -34 0
-47 -35 0
-48 -36 0
-49 -37 0
-37 -49 0
-38 -50 0
-39 -51 0
-40 -52 0
-41 -53 0
-42 -54 0
-43 -55 0
-44 -56 0
-45 -57 0
-46 -58 0
-47 -59 0
-48 -60 0
-49 -61 0
-37 -61 0
-38 -62 0
-39 -63 0
-40 -64 0
-41 -65 0
-42 -66 0
-43 -67 0
-44 -68 0
-45 -69 0
-46 -70 0
-47 -71 0
-48 -72 0
-49 -73 0
-37 -73 0
-38 -74 0
-39 -75 0
-40 -76 0
-41 -77 0
-42 -78 0
-43 -79 0
-44 -80 0
-45 -81 0
-46 -82 0
-47 -83 0
-48 -84 0
-49 -85 0
-37 -85 0
-38 -86 0
-39 -87 0
-40 -88 0
-41 -89 0
-42 -90 0
-43 -91 0
-44 -92 0
-45 -93 0
-46 -94 0
-47 -95 0
-48 -96 0
-49 -97 0
-37 -97 0
-38 -98 0
-39 -99 0
-40 -100 0
-41 -101 0
-42 -102 0
-43 -103 0
-44 -104 0
-45 -105 0
-46 -106 0
-47 -107 0
-48 -108 0
-49 -109 0
-37 -109 0
-38 -110 0
-39 -111 0
-40 -112 0
-41 -113 0
-42 -114 0
-43 -115 0
-44 -116 0
-45 -117 0
-46 -118 0
-47 -119 0
-48 -120 0
-49 -1 0
-50 -2 0
-51 -3 0
-52 -4 0
-53 -5 0
-54 -6 0
-55 -7 0
-56 -8 0
-57 -9 0
-58 -10 0
-59 -11 0
-60 -12 0
-61 -13 0
-49 -13 0
-50 -14 0
-51 -15 0
-52 -16 0
-53 -17 0
-54 -18 0
-55 -19 0
-56 -20 0
-57 -21 0
-58 -22 0
-59 -23 0
-60 -24 0
-61 -25 0
-49 -25 0
-50 -26 0
-51 -27 0
-52 -28 0
-53 -29 0
-54 -30 0
-55 -31 0
-56 -32 0
-57 -33 0
-58 -34 0
-59 -35 0
-60 -36 0
-61 -37 0
-49 -37 0
-50 -38 0
-51 -39 0
-52 -40 0
-53 -41 0
-54 -42 0
-55 -43 0
-56 -44 0
-57 -45 0
-58 -46 0
-59 -47 0
-60 -48 0
-61 -49 0
-49 -61 0
-50 -62 0
-51 -63 0
-52 -64 0
-53 -65 0
-54 -66 0
-55 -67 0
-56 -68 0
-57 -69 0
-58 -70 0
-59 -71 0
-60 -72 0
-61 -73 0
-49 -73 0
-50 -74 0
-51 -75 0
-52 -76 0
-53 -77 0
-54 -78 0
-55 -79 0
-56 -80 0
-57 -81 0
-58 -82 0
-59 -83 0
-60 -84 0
-61 -85 0
-49 -85 0
-50 -86 0
-51 -87 0
-52 -88 0
-53 -89 0
-54 -90 0
-55 -91 0
-56 -92 0
-57 -93 0
-58 -94 0
-59 -95 0
-60 -96 0
-61 -97 0
-49 -97 0
-50 -98 0
-51 -99 0
-52 -100 0
-53 -101 0
-54 -102 0
-55 -103 0
-56 -104 0
-57 -105 0
-58 -106 0
-59 -107 0
-60 -108 0
-61 -109 0
-49 -109 0
-50 -110 0
-51 -111 0
-52 -112 0
-53 -113 0
-54 -114 0
-55 -115 0
-56 -116 0
-57 -117 0
-58 -118 0
-59 -119 0
-60 -120 0
-61 -1 0
-62 -2 0
-63 -3 0
-64 -4 0
-65 -5 0
-66 -6 0
-67 -7 0
-68 -8 0
-69 -9 0
-70 -10 0
-71 -11 0
-72 -12 0
-73 -13 0
-61 -13 0
-62 -14 0
-63 -15 0
-64 -16 0
-65 -17 0
-66 -18 0
-67 -19 0
-68 -20 0
-69 -21 0
-70 -22 0
-71 -23 0
-72 -24 0
-73 -25 0
-61 -25 0
-62 -26 0
-63 -27 0
-64 -28 0
-65 -29 0
-66 -30 0
-67 -31 0
-68 -32 0
-69 -33 0
-70 -34 0
-71 -35 0
-72 -36 0
-73 -37 0
-61 -37 0
-62 -38 0
-63 -39 0
-64 -40 0
-65 -41 0
-66 -42 0
-67 -43 0
-68 -44 0
-69 -45 0
-70 -46 0
-71 -47 0
-72 -48 0
-73 -49 0
-61 -49 0
-62 -50 0
-63 -51 0
-64 -52 0
-65 -53 0
-66 -54 0
-67 -55 0
-68 -56 0
-69 -57 0
-70 -58 0
-71 -59 0
-72 -60 0
-73 -61 0
-61 -73 0
-62 -74 0
-63 -75 0
-64 -76 0
-65 -77 0
-66 -78 0
-67 -79 0
-68 -80 0
-69 -81 0
-70 -82 0
-71 -83 0
-72 -84 0
-73 -85 0
-61 -85 0
-62 -86 0
-63 -87 0
-64 -88 0
-65 -89 0
-66 -90 0
-67 -91 0
-68 -92 0
-69 -93 0
-70 -94 0
-71 -95 0
-72 -96 0
-73 -97 0
-61 -97 0
-62 -98 0
-63 -99 0
-64 -100 0
-65 -101 0
-66 -102 0
-67 -103 0
-68 -104 0
-69 -105 0
-70 -106 0
-71 -107 0
-72 -108 0
-73 -109 0
-61 -109 0
-62 -110 0
-63 -111 0
-64 -112 0
-65 -113 0
-66 -114 0
-67 -115 0
-68 -116 0
-69 -117 0
-70 -118 0
-71 -119 0
-72 -120 0
-73 -1 0
-74 -2 0
-75 -3 0
-76 -4 0
-77 -5 0
-78 -6 0
-79 -7 0
-80 -8 0
-81 -9 0
-82 -10 0
-83 -11 0
-84 -12 0
-85 -13 0
-73 -13 0
-74 -14 0
-75 -15 0
-76 -16 0
-77 -17 0
-78 -18 0
-79 -19 0
-80 -20 0
-81 -21 0
-82 -22 0
-83 -23 0
-84 -24 0
-85 -25 0
-73 -25 0
-74 -26 0
-75 -27 0
-76 -28 0
-77 -29 0
-78 -30 0
-79 -31 0
-80 -32 0
-81 -33 0
-82 -34 0
-83 -35 0
-84 -36 0
-85 -37 0
-73 -37 0
-74 -38 0
-75 -39 0
-76 -40 0
-77 -41 0
-78 -42 0
-79 -43 0
-80 -44 0
-81 -45 0
-82 -46 0
-83 -47 0
-84 -48 0
-85 -49 0
-73 -49 0
-74 -50 0
-75 -51 0
-76 -52 0
-77 -53 0
-78 -54 0
-79 -55 0
-80 -56 0
-81 -57 0
-82 -58 0
-83 -59 0
-84 -60 0
-85 -61 0
-73 -61 0
-74 -62 0
-75 -63 0
-76 -64 0
-77 -65 0
-78 -66 0
-79 -67 0
-80 -68 0
-81 -69 0
-82 -70 0
-83 -71 0
-84 -72 0
-85 -73 0
-73 -85 0
-74 -86 0
-75 -87 0
-76 -88 0
-77 -89 0
-78 -90 0
-79 -91 0
-80 -92 0
-81 -93 0
-82 -94 0
-83 -95 0
-84 -96 0
-85 -97 0
-73 -97 0
-74 -98 0
-75 -99 0
-76 -100 0
-77 -101 0
-78 -102 0
-79 -103 0
-80 -104 0
-81 -105 0
-82 -106 0
-83 -107 0
-84 -108 0
-85 -109 0
-73 -109 0
-74 -110 0
-75 -111 0
-76 -112 0
-77 -113 0
-78 -114 0
-79 -115 0
-80 -116 0
-81 -117 0
-82 -118 0
-83 -119 0
-84 -120 0
-85 -1 0
-86 -2 0
-87 -3 0
-88 -4 0
-89 -5 0
-90 -6 0
-91 -7 0
-92 -8 0
-93 -9 0
-94 -10 0
-95 -11 0
-96 -12 0
-97 -13 0
-85 -13 0
-86 -14 0
-87 -15 0
-88 -16 0
-89 -17 0
-90 -18 0
-91 -19 0
-92 -20 0
-93 -21 0
-94 -22 0
-95 -23 0
-96 -24 0
-97 -25 0
-85 -25 0
-86 -26 0
-87 -27 0
-88 -28 0
-89 -29 0
-90 -30 0
-91 -31 0
-92 -32 0
-93 -33 0
-94 -34 0
-95 -35 0
-96 -36 0
-97 -37 0
-85 -37 0
-86 -38 0
-87 -39 0
-88 -40 0
-89 -41 0
-90 -42 0
-91 -43 0
-92 -44 0
-93 -45 0
-94 -46 0
-95 -47 0
-96 -48 0
-97 -49 0
-85 -49 0
-86 -50 0
-87 -51 0
-88 -52 0
-89 -53 0
-90 -54 0
-91 -55 0
-92 -56 0
-93 -57 0
-94 -58 0
-95 -59 0
-96 -60 0
-97 -61 0
-85 -61 0
-86 -62 0
-87 -63 0
-88 -64 0
-89 -65 0
-90 -66 0
-91 -67 0
-92 -68 0
-93 -69 0
-94 -70 0
-95 -71 0
-96 -72 0
-97 -73 0
-85 -73 0
-86 -74 0
-87 -75 0
-88 -76 0
-89 -77 0
-90 -78 0
-91 -79 0
-92 -80 0
-93 -81 0
-94 -82 0
-95 -83 0
-96 -84 0
-97 -85 0
-85 -97 0
-86 -98 0
-87 -99 0
-88 -100 0
-89 -101 0
-90 -102 0
-91 -103 0
-92 -104 0
-93 -105 0
-94 -106 0
-95 -107 0
-96 -108 0
-97 -109 0
-85 -109 0
-86 -110 0
-87 -111 0
-88 -112 0
-89 -113 0
-90 -114 0
-91 -115 0
-92 -116 0
-93 -117 0
-94 -118 0
-95 -119 0
-96 -120 0
-97 -1 0
-98 -2 0
-99 -3 0
-100 -4 0
-101 -5 0
-102 -6 0
-103 -7 0
-104 -8 0
-105 -9 0
-106 -10 0
-107 -11 0
-108 -12 0
-109 -13 0
-97 -13 0
-98 -14 0
-99 -15 0
-100 -16 0
-101 -17 0
-102 -18 0
-103 -19 0
-104 -20 0
-105 -21 0
-106 -22 0
-107 -23 0
-108 -24 0
-109 -25 0
-97 -25 0
-98 -26 0
-99 -27 0
-100 -28 0
-101 -29 0
-102 -30 0
-103 -31 0
-104 -32 0
-105 -33 0
-106 -34 0
-107 -35 0
-108 -36 0
-109 -37 0
-97 -37 0
-98 -38 0
-99 -39 0
-100 -40 0
-101 -41 0
-102 -42 0
-103 -43 0
-104 -44 0
-105 -45 0
-106 -46 0
-107 -47 0
-108 -48 0
-109 -49 0
-97 -49 0
-98 -50 0
-99 -51 0
-100 -52 0
-101 -53 0
-102 -54 0
-103 -55 0
-104 -56 0
-105 -57 0
-106 -58 0
-107 -59 0
-108 -60 0
-109 -61 0
-97 -61 0
-98 -62 0
-99 -63 0
-100 -64 0
-101 -65 0
-102 -66 0
-103 -67 0
-104 -68 0
-105 -69 0
-106 -70 0
-107 -71 0
-108 -72 0
-109 -73 0
-97 -73 0
-98 -74 0
-99 -75 0
-100 -76 0
-101 -77 0
-102 -78 0
-103 -79 0
-104 -80 0
-105 -81 0
-106 -82 0
-107 -83 0
-108 -84 0
-109 -85 0
-97 -85 0
-98 -86 0
-99 -87 0
-100 -88 0
-101 -89 0
-102 -90 0
-103 -91 0
-104 -92 0
-105 -93 0
-106 -94 0
-107 -95 0
-108 -96 0
-109 -97 0
-97 -109 0
-98 -110 0
-99 -111 0
-100 -112 0
-101 -113 0
-102 -114 0
-103 -115 0
-104 -116 0
-105 -117 0
-106 -118 0
-107 -119 0
-108 -120 0
-109 -1 0
-110 -2 0
-111 -3 0
-112 -4 0
-113 -5 0
-114 -6 0
-115 -7 0
-116 -8 0
-117 -9 0
-118 -10 0
-119 -11 0
-120 -12 0
-109 -13 0
-110 -14 0
-111 -15 0
-112 -16 0
-113 -17 0
-114 -18 0
-115 -19 0
-116 -20 0
-117 -21 0
-118 -22 0
-119 -23 0
-120 -24 0
-109 -25 0
-110 -26 0
-111 -27 0
-112 -28 0
-113 -29 0
-114 -30 0
-115 -31 0
-116 -32 0
-117 -33 0
-118 -34 0
-119 -35 0
-120 -36 0
-109 -37 0
-110 -38 0
-111 -39 0
-112 -40 0
-113 -41 0
-114 -42 0
-115 -43 0
-116 -44 0
-117 -45 0
-118 -46 0
-119 -47 0
-120 -48 0
-109 -49 0
-110 -50 0
-111 -51 0
-112 -52 0
-113 -53 0
-114 -54 0
-115 -55 0
-116 -56 0
-117 -57 0
-118 -58 0
-119 -59 0
-120 -60 0
-109 -61 0
-110 -62 0
-111 -63 0
-112 -64 0
-113 -65 0
-114 -66 0
-115 -67 0
-116 -68 0
-117 -69 0
-118 -70 0
-119 -71 0
-120 -72 0
-109 -73 0
-110 -74 0
-111 -75 0
-112 -76 0
-113 -77 0
-114 -78 0
-115 -79 0
-116 -80 0
-117 -81 0
-118 -82 0
-119 -83 0
-120 -84 0
-109 -85 0
-110 -86 0
-111 -87 0
-112 -88 0
-113 -89 0
-114 -90 0
-115 -91 0
-116 -92 0
-117 -93 0
-118 -94 0
-119 -95 0
-120 -96 0
-109 -97 0
-110 -98 0
-111 -99 0
-112 -100 0
-113 -101 0
-114 -102 0
-115 -103 0
-116 -104 0
-117 -105 0
-118 -106 0
-119 -107 0
-120 -108 0
